(declare-const i Int)
(declare-const n Int)
(declare-const |w'| Real)
(declare-const |a.Top@width'| Int)
(declare-const |a.Top@pos'| Int)
(declare-const |k'| Int)
(declare-const |j'| Int)
(declare-const |a.Top'| Int)
(assert (exists
         ((store?1 Int) (store?2 Int) (store?3 Int) (|w'?4| Real)
            (|k'?5| Int) (K?6 Int) (phi_w?7 Real) (phi_k?8 Int) (tr?9 Int)
            (k?10 Int) (j?11 Int))
         (and (<= (+ (- j?11) 1) 0) (<= (- i) 0) (<= (+ (- n) 1) 0)
                (<= (+ (- n) j?11) 0)
                (or (and (<= (- i) 0) (<= i 0) (= (+ (- phi_k?8) k?10) 0)
                           (= (+ (- phi_w?7) tr?9) 0))
                      (and (or (<= (+ i 1) 0) (<= (+ (- i) 1) 0))
                             (= (+ |k'?5| (- K?6)) 0)
                             (or (and (= K?6 0) (= (+ (- |w'?4|) tr?9) 0)
                                        (= (- |k'?5|) 0))
                                   (and (<= (+ (- K?6) 1) 0)
                                          (<= (+ (- i) 1) 0)
                                          (<= (+ (- |k'?5|) 1) 0)
                                          (<= (+ |k'?5| (- i)) 0)))
                             (<= (- K?6) 0) (<= (- |k'?5|) 0)
                             (<= (+ (- i) 1) 0) (<= (+ (- |k'?5|) i) 0)
                             (= (+ |k'?5| (- phi_k?8)) 0)
                             (= (+ |w'?4| (- phi_w?7)) 0)))
                (= (+ (- store?1) |a.Top@width'|) 0)
                (= (+ (- store?2) |a.Top@pos'|) 0) (= (+ |w'| (- phi_w?7)) 0)
                (= (+ |k'| (- phi_k?8)) 0) (= (+ |j'| (- j?11) -1) 0)
                (= (+ (- store?3) |a.Top'|) 0))))
(check-sat)
